c random cnf
p cnf 50 50
6 -15 0
22 29 0
10 28 0
15 -29 0
-17 37 0
9 37 0
3 28 0
-35 -49 0
-20 23 0
28 -39 0
-4 18 0
-18 36 0
8 16 0
-17 -43 0
10 48 0
-16 44 0
-2 18 0
-20 -34 0
36 45 0
36 -49 0
-7 16 0
33 -47 0
-8 28 0
-13 45 0
7 -36 0
14 49 0
32 -46 0
-27 -39 0
17 -27 0
-3 21 0
-8 -26 0
-21 24 0
-4 29 0
-30 39 0
-12 -26 0
4 -45 0
29 -45 0
4 12 0
-3 35 0
-13 -50 0
26 44 0
-20 43 0
-25 -33 0
-16 -17 0
-1 -22 0
-10 11 0
-22 -36 0
2 49 0
-5 -23 0
18 34 0
